Maximize
  - 1.829800558222 edge_0_1_0_0 - 2.9150175625851 edge_0_2_0_0
   + 0.077667664675032 edge_0_3_0_0 - 3.4419 edge_0_5_0_0
   - 3.1547563652475 edge_0_7_0_0 - 3.19353 edge_0_10_0_0
   - 4.0533526112536 edge_0_12_0_0 - 4.028708719584 edge_0_14_0_0
   - 2.1617991757526 edge_0_15_0_0 + 0.1374021565951958 edge_1_2_0_0
   + 0.3919748914093117 edge_1_3_0_0 - 0.1573423050186151 edge_1_4_0_0
   - 0.13468859880736 edge_1_5_0_0 - 0.1541444908053134 edge_1_7_0_0
   - 0.5947573025740085 edge_1_8_0_0 - 0.4374408268100545 edge_1_10_0_0
   + 0.080159263320687 edge_1_13_0_0 + 0.2802387837508248 edge_2_1_0_0
   + 0.8679658108854454 edge_2_3_0_0 + 0.507116832591576 edge_2_4_0_0
   + 1.3532998949902 edge_2_5_0_0 + 1.385700234327068 edge_2_7_0_0
   - 0.079666198891044 edge_2_8_0_0 - 0.0111225142226787 edge_2_9_0_0
   + 0.4270428054289272 edge_2_10_0_0 - 0.5284509500106881 edge_2_11_0_0
   + 0.4488498796957428 edge_2_12_0_0 + 0.0749730949240478 edge_2_13_0_0
   - 0.6546234273218913 edge_2_14_0_0 + 0.1287433948044526 edge_2_15_0_0
   + 1.116484395884582 edge_3_1_0_0 + 2.541286518433389 edge_3_2_0_0
   + 0.8685456134724202 edge_3_4_0_0 + 2.8603693135112 edge_3_5_0_0
   + 1.819108052227563 edge_3_7_0_0 + 0.7334020159745139 edge_3_8_0_0
   + 0.2179334428096706 edge_3_9_0_0 + 2.235078793056961 edge_3_10_0_0
   + 1.053890100296715 edge_3_11_0_0 + 1.770781311848983 edge_3_12_0_0
   + 2.183657321516617 edge_3_13_0_0 + 2.557942223833719 edge_3_14_0_0
   + 3.664842668171048 edge_3_15_0_0 + 0.301199694173124 edge_4_1_0_0
   + 0.4488893511081443 edge_4_2_0_0 + 0.4548247688380716 edge_4_3_0_0
   + 0.7997236037598601 edge_4_5_0_0 + 0.5939810472158903 edge_4_7_0_0
   + 0.5504024755474589 edge_4_8_0_0 - 0.3878763241376283 edge_4_9_0_0
   + 0.29512955240874 edge_4_10_0_0 - 0.245796185167758 edge_4_11_0_0
   - 0.5809418581125001 edge_4_12_0_0 + 0.0639014894775636 edge_4_13_0_0
   + 0.1938080795330789 edge_4_15_0_0 + 0.28192515035048 edge_5_1_0_0
   + 0.53952551520549 edge_5_2_0_0 + 0.5864411623670399 edge_5_3_0_0
   + 2.985748816512 edge_5_4_0_0 + 2.7419276910136 edge_5_7_0_0
   + 0.57415983039888 edge_5_8_0_0 + 0.647657361444 edge_5_9_0_0
   + 1.41056 edge_5_10_0_0 + 0.062033341911048 edge_5_11_0_0
   + 0.77770642626894 edge_5_12_0_0 + 1.0223772836343 edge_5_13_0_0
   + 0.9770262643188 edge_5_14_0_0 + 0.24759105241035 edge_5_15_0_0
   - 0.8261724982780292 edge_7_1_0_0 - 0.9972661062258479 edge_7_2_0_0
   - 0.7689838133502401 edge_7_3_0_0 - 0.0791663544740846 edge_7_4_0_0
   - 0.1856549116522 edge_7_5_0_0 - 0.1876914352885154 edge_7_8_0_0
   - 0.132258827825622 edge_7_9_0_0 + 0.057722108691324 edge_7_10_0_0
   - 0.098806489039269 edge_7_11_0_0 - 0.7019610990588367 edge_7_12_0_0
   + 0.0643972013490424 edge_7_13_0_0 + 0.0642419379611899 edge_7_15_0_0
   - 1.237537273181469 edge_8_4_0_0 - 1.6310826935568 edge_8_5_0_0
   - 0.7639224174160998 edge_8_7_0_0 + 1.11802981650041 edge_8_9_0_0
   + 1.233151461222851 edge_8_10_0_0 - 0.0714562264743406 edge_8_11_0_0
   + 0.2367739875145838 edge_8_12_0_0 + 0.2207713492403363 edge_8_13_0_0
   + 0.5043133789684114 edge_8_15_0_0 - 1.10213045023833 edge_9_2_0_0
   - 0.2470867305706493 edge_9_4_0_0 - 0.6790605155559 edge_9_5_0_0
   - 0.3905286848783902 edge_9_7_0_0 + 0.6620280523297448 edge_9_8_0_0
   - 0.3924849329918263 edge_9_11_0_0 - 0.0381694789482016 edge_9_12_0_0
   - 0.4006563635926454 edge_9_15_0_0 - 0.442290005217353 edge_10_1_0_0
   + 0.024772798183381 edge_10_2_0_0 - 0.1337569020380198 edge_10_3_0_0
   + 0.8225407263703008 edge_10_4_0_0 + 0.16736197991656 edge_10_5_0_0
   + 0.294777247523006 edge_10_7_0_0 + 2.606556397051595 edge_10_8_0_0
   + 3.6254487691233 edge_10_9_0_0 + 0.3476467239900281 edge_10_11_0_0
   + 1.586377949238123 edge_10_12_0_0 + 0.9067671400785301 edge_10_13_0_0
   + 0.9061771908427613 edge_10_14_0_0 + 1.002513224477843 edge_10_15_0_0
   - 1.180513733058447 edge_11_1_0_0 - 0.6904395471987729 edge_11_2_0_0
   - 0.3792188073335654 edge_11_4_0_0 - 0.91016020002555 edge_11_5_0_0
   - 0.3861411795073563 edge_11_7_0_0 + 0.1973268463944701 edge_11_8_0_0
   - 0.0298526633813673 edge_11_9_0_0 + 0.00427713471840897 edge_11_10_0_0
   + 0.7489106177555952 edge_11_12_0_0 + 0.1884405271750183 edge_11_13_0_0
   - 0.0107012726325931 edge_11_15_0_0 - 0.4053870666601191 edge_12_1_0_0
   - 0.3186624792166776 edge_12_2_0_0 + 0.2510556209449852 edge_12_3_0_0
   + 0.4267065922925674 edge_12_4_0_0 - 0.45224436228612 edge_12_5_0_0
   + 0.0375818633541117 edge_12_7_0_0 + 0.6490408651960414 edge_12_8_0_0
   + 0.9119467868525899 edge_12_9_0_0 + 0.35546010201677 edge_12_10_0_0
   + 3.296012586690365 edge_12_11_0_0 + 1.419694974844136 edge_12_13_0_0
   + 0.8762331788966494 edge_12_14_0_0 + 0.529949594563217 edge_12_15_0_0
   - 1.093145929478073 edge_13_10_0_0 - 0.5707095331986579 edge_13_11_0_0
   - 0.3198105706785112 edge_13_12_0_0 - 0.8805651911851911 edge_13_14_0_0
   + 0.4052334074277322 edge_14_2_0_0 + 0.1945524085590108 edge_14_3_0_0
   - 0.126944625981952 edge_14_4_0_0 + 0.6647301387504 edge_14_5_0_0
   + 0.7057283274496302 edge_14_7_0_0 - 0.1707865481101863 edge_14_8_0_0
   + 0.620723899465215 edge_14_9_0_0 + 1.058326719177889 edge_14_10_0_0
   + 1.676398147533544 edge_14_11_0_0 + 1.769807497473932 edge_14_12_0_0
   + 2.4308155507286 edge_14_13_0_0 + 3.160523107716219 edge_14_15_0_0
   - 0.1812445973899403 edge_15_12_0_0 - 0.6385952377314377 edge_15_14_0_0
Subject To
 one_parent_1: edge_0_1_0_0 + edge_2_1_0_0 + edge_3_1_0_0 + edge_4_1_0_0
   + edge_5_1_0_0 + edge_7_1_0_0 + edge_10_1_0_0 + edge_11_1_0_0
   + edge_12_1_0_0 = 1
 consume_one_flow_unit_1: flow_0_1_0_0 - flow_1_2_0_0 - flow_1_3_0_0
   - flow_1_4_0_0 - flow_1_5_0_0 - flow_1_7_0_0 - flow_1_8_0_0
   - flow_1_10_0_0 - flow_1_13_0_0 + flow_2_1_0_0 + flow_3_1_0_0
   + flow_4_1_0_0 + flow_5_1_0_0 + flow_7_1_0_0 + flow_10_1_0_0
   + flow_11_1_0_0 + flow_12_1_0_0 = 1
 one_parent_2: edge_0_2_0_0 + edge_1_2_0_0 + edge_3_2_0_0 + edge_4_2_0_0
   + edge_5_2_0_0 + edge_7_2_0_0 + edge_9_2_0_0 + edge_10_2_0_0
   + edge_11_2_0_0 + edge_12_2_0_0 + edge_14_2_0_0 = 1
 consume_one_flow_unit_2: flow_0_2_0_0 + flow_1_2_0_0 - flow_2_1_0_0
   - flow_2_3_0_0 - flow_2_4_0_0 - flow_2_5_0_0 - flow_2_7_0_0
   - flow_2_8_0_0 - flow_2_9_0_0 - flow_2_10_0_0 - flow_2_11_0_0
   - flow_2_12_0_0 - flow_2_13_0_0 - flow_2_14_0_0 - flow_2_15_0_0
   + flow_3_2_0_0 + flow_4_2_0_0 + flow_5_2_0_0 + flow_7_2_0_0
   + flow_9_2_0_0 + flow_10_2_0_0 + flow_11_2_0_0 + flow_12_2_0_0
   + flow_14_2_0_0 = 1
 one_parent_3: edge_0_3_0_0 + edge_1_3_0_0 + edge_2_3_0_0 + edge_4_3_0_0
   + edge_5_3_0_0 + edge_7_3_0_0 + edge_10_3_0_0 + edge_12_3_0_0
   + edge_14_3_0_0 = 1
 consume_one_flow_unit_3: flow_0_3_0_0 + flow_1_3_0_0 + flow_2_3_0_0
   - flow_3_1_0_0 - flow_3_2_0_0 - flow_3_4_0_0 - flow_3_5_0_0
   - flow_3_7_0_0 - flow_3_8_0_0 - flow_3_9_0_0 - flow_3_10_0_0
   - flow_3_11_0_0 - flow_3_12_0_0 - flow_3_13_0_0 - flow_3_14_0_0
   - flow_3_15_0_0 + flow_4_3_0_0 + flow_5_3_0_0 + flow_7_3_0_0
   + flow_10_3_0_0 + flow_12_3_0_0 + flow_14_3_0_0 = 1
 one_parent_4: edge_1_4_0_0 + edge_2_4_0_0 + edge_3_4_0_0 + edge_5_4_0_0
   + edge_7_4_0_0 + edge_8_4_0_0 + edge_9_4_0_0 + edge_10_4_0_0
   + edge_11_4_0_0 + edge_12_4_0_0 + edge_14_4_0_0 = 1
 consume_one_flow_unit_4: flow_1_4_0_0 + flow_2_4_0_0 + flow_3_4_0_0
   - flow_4_1_0_0 - flow_4_2_0_0 - flow_4_3_0_0 - flow_4_5_0_0
   - flow_4_7_0_0 - flow_4_8_0_0 - flow_4_9_0_0 - flow_4_10_0_0
   - flow_4_11_0_0 - flow_4_12_0_0 - flow_4_13_0_0 - flow_4_15_0_0
   + flow_5_4_0_0 + flow_7_4_0_0 + flow_8_4_0_0 + flow_9_4_0_0
   + flow_10_4_0_0 + flow_11_4_0_0 + flow_12_4_0_0 + flow_14_4_0_0 = 1
 one_parent_5: edge_0_5_0_0 + edge_1_5_0_0 + edge_2_5_0_0 + edge_3_5_0_0
   + edge_4_5_0_0 + edge_7_5_0_0 + edge_8_5_0_0 + edge_9_5_0_0
   + edge_10_5_0_0 + edge_11_5_0_0 + edge_12_5_0_0 + edge_14_5_0_0 = 1
 consume_one_flow_unit_5: flow_0_5_0_0 + flow_1_5_0_0 + flow_2_5_0_0
   + flow_3_5_0_0 + flow_4_5_0_0 - flow_5_1_0_0 - flow_5_2_0_0
   - flow_5_3_0_0 - flow_5_4_0_0 - flow_5_7_0_0 - flow_5_8_0_0
   - flow_5_9_0_0 - flow_5_10_0_0 - flow_5_11_0_0 - flow_5_12_0_0
   - flow_5_13_0_0 - flow_5_14_0_0 - flow_5_15_0_0 + flow_7_5_0_0
   + flow_8_5_0_0 + flow_9_5_0_0 + flow_10_5_0_0 + flow_11_5_0_0
   + flow_12_5_0_0 + flow_14_5_0_0 = 1
 one_parent_6: = 1
 consume_one_flow_unit_6: = 1
 one_parent_7: edge_0_7_0_0 + edge_1_7_0_0 + edge_2_7_0_0 + edge_3_7_0_0
   + edge_4_7_0_0 + edge_5_7_0_0 + edge_8_7_0_0 + edge_9_7_0_0
   + edge_10_7_0_0 + edge_11_7_0_0 + edge_12_7_0_0 + edge_14_7_0_0 = 1
 consume_one_flow_unit_7: flow_0_7_0_0 + flow_1_7_0_0 + flow_2_7_0_0
   + flow_3_7_0_0 + flow_4_7_0_0 + flow_5_7_0_0 - flow_7_1_0_0
   - flow_7_2_0_0 - flow_7_3_0_0 - flow_7_4_0_0 - flow_7_5_0_0
   - flow_7_8_0_0 - flow_7_9_0_0 - flow_7_10_0_0 - flow_7_11_0_0
   - flow_7_12_0_0 - flow_7_13_0_0 - flow_7_15_0_0 + flow_8_7_0_0
   + flow_9_7_0_0 + flow_10_7_0_0 + flow_11_7_0_0 + flow_12_7_0_0
   + flow_14_7_0_0 = 1
 one_parent_8: edge_1_8_0_0 + edge_2_8_0_0 + edge_3_8_0_0 + edge_4_8_0_0
   + edge_5_8_0_0 + edge_7_8_0_0 + edge_9_8_0_0 + edge_10_8_0_0
   + edge_11_8_0_0 + edge_12_8_0_0 + edge_14_8_0_0 = 1
 consume_one_flow_unit_8: flow_1_8_0_0 + flow_2_8_0_0 + flow_3_8_0_0
   + flow_4_8_0_0 + flow_5_8_0_0 + flow_7_8_0_0 - flow_8_4_0_0
   - flow_8_5_0_0 - flow_8_7_0_0 - flow_8_9_0_0 - flow_8_10_0_0
   - flow_8_11_0_0 - flow_8_12_0_0 - flow_8_13_0_0 - flow_8_15_0_0
   + flow_9_8_0_0 + flow_10_8_0_0 + flow_11_8_0_0 + flow_12_8_0_0
   + flow_14_8_0_0 = 1
 one_parent_9: edge_2_9_0_0 + edge_3_9_0_0 + edge_4_9_0_0 + edge_5_9_0_0
   + edge_7_9_0_0 + edge_8_9_0_0 + edge_10_9_0_0 + edge_11_9_0_0
   + edge_12_9_0_0 + edge_14_9_0_0 = 1
 consume_one_flow_unit_9: flow_2_9_0_0 + flow_3_9_0_0 + flow_4_9_0_0
   + flow_5_9_0_0 + flow_7_9_0_0 + flow_8_9_0_0 - flow_9_2_0_0
   - flow_9_4_0_0 - flow_9_5_0_0 - flow_9_7_0_0 - flow_9_8_0_0
   - flow_9_11_0_0 - flow_9_12_0_0 - flow_9_15_0_0 + flow_10_9_0_0
   + flow_11_9_0_0 + flow_12_9_0_0 + flow_14_9_0_0 = 1
 one_parent_10: edge_0_10_0_0 + edge_1_10_0_0 + edge_2_10_0_0
   + edge_3_10_0_0 + edge_4_10_0_0 + edge_5_10_0_0 + edge_7_10_0_0
   + edge_8_10_0_0 + edge_11_10_0_0 + edge_12_10_0_0 + edge_13_10_0_0
   + edge_14_10_0_0 = 1
 consume_one_flow_unit_10: flow_0_10_0_0 + flow_1_10_0_0 + flow_2_10_0_0
   + flow_3_10_0_0 + flow_4_10_0_0 + flow_5_10_0_0 + flow_7_10_0_0
   + flow_8_10_0_0 - flow_10_1_0_0 - flow_10_2_0_0 - flow_10_3_0_0
   - flow_10_4_0_0 - flow_10_5_0_0 - flow_10_7_0_0 - flow_10_8_0_0
   - flow_10_9_0_0 - flow_10_11_0_0 - flow_10_12_0_0 - flow_10_13_0_0
   - flow_10_14_0_0 - flow_10_15_0_0 + flow_11_10_0_0 + flow_12_10_0_0
   + flow_13_10_0_0 + flow_14_10_0_0 = 1
 one_parent_11: edge_2_11_0_0 + edge_3_11_0_0 + edge_4_11_0_0
   + edge_5_11_0_0 + edge_7_11_0_0 + edge_8_11_0_0 + edge_9_11_0_0
   + edge_10_11_0_0 + edge_12_11_0_0 + edge_13_11_0_0 + edge_14_11_0_0 = 1
 consume_one_flow_unit_11: flow_2_11_0_0 + flow_3_11_0_0 + flow_4_11_0_0
   + flow_5_11_0_0 + flow_7_11_0_0 + flow_8_11_0_0 + flow_9_11_0_0
   + flow_10_11_0_0 - flow_11_1_0_0 - flow_11_2_0_0 - flow_11_4_0_0
   - flow_11_5_0_0 - flow_11_7_0_0 - flow_11_8_0_0 - flow_11_9_0_0
   - flow_11_10_0_0 - flow_11_12_0_0 - flow_11_13_0_0 - flow_11_15_0_0
   + flow_12_11_0_0 + flow_13_11_0_0 + flow_14_11_0_0 = 1
 one_parent_12: edge_0_12_0_0 + edge_2_12_0_0 + edge_3_12_0_0
   + edge_4_12_0_0 + edge_5_12_0_0 + edge_7_12_0_0 + edge_8_12_0_0
   + edge_9_12_0_0 + edge_10_12_0_0 + edge_11_12_0_0 + edge_13_12_0_0
   + edge_14_12_0_0 + edge_15_12_0_0 = 1
 consume_one_flow_unit_12: flow_0_12_0_0 + flow_2_12_0_0 + flow_3_12_0_0
   + flow_4_12_0_0 + flow_5_12_0_0 + flow_7_12_0_0 + flow_8_12_0_0
   + flow_9_12_0_0 + flow_10_12_0_0 + flow_11_12_0_0 - flow_12_1_0_0
   - flow_12_2_0_0 - flow_12_3_0_0 - flow_12_4_0_0 - flow_12_5_0_0
   - flow_12_7_0_0 - flow_12_8_0_0 - flow_12_9_0_0 - flow_12_10_0_0
   - flow_12_11_0_0 - flow_12_13_0_0 - flow_12_14_0_0 - flow_12_15_0_0
   + flow_13_12_0_0 + flow_14_12_0_0 + flow_15_12_0_0 = 1
 one_parent_13: edge_1_13_0_0 + edge_2_13_0_0 + edge_3_13_0_0
   + edge_4_13_0_0 + edge_5_13_0_0 + edge_7_13_0_0 + edge_8_13_0_0
   + edge_10_13_0_0 + edge_11_13_0_0 + edge_12_13_0_0 + edge_14_13_0_0 = 1
 consume_one_flow_unit_13: flow_1_13_0_0 + flow_2_13_0_0 + flow_3_13_0_0
   + flow_4_13_0_0 + flow_5_13_0_0 + flow_7_13_0_0 + flow_8_13_0_0
   + flow_10_13_0_0 + flow_11_13_0_0 + flow_12_13_0_0 - flow_13_10_0_0
   - flow_13_11_0_0 - flow_13_12_0_0 - flow_13_14_0_0 + flow_14_13_0_0 = 1
 one_parent_14: edge_0_14_0_0 + edge_2_14_0_0 + edge_3_14_0_0
   + edge_5_14_0_0 + edge_10_14_0_0 + edge_12_14_0_0 + edge_13_14_0_0
   + edge_15_14_0_0 = 1
 consume_one_flow_unit_14: flow_0_14_0_0 + flow_2_14_0_0 + flow_3_14_0_0
   + flow_5_14_0_0 + flow_10_14_0_0 + flow_12_14_0_0 + flow_13_14_0_0
   - flow_14_2_0_0 - flow_14_3_0_0 - flow_14_4_0_0 - flow_14_5_0_0
   - flow_14_7_0_0 - flow_14_8_0_0 - flow_14_9_0_0 - flow_14_10_0_0
   - flow_14_11_0_0 - flow_14_12_0_0 - flow_14_13_0_0 - flow_14_15_0_0
   + flow_15_14_0_0 = 1
 one_parent_15: edge_0_15_0_0 + edge_2_15_0_0 + edge_3_15_0_0
   + edge_4_15_0_0 + edge_5_15_0_0 + edge_7_15_0_0 + edge_8_15_0_0
   + edge_9_15_0_0 + edge_10_15_0_0 + edge_11_15_0_0 + edge_12_15_0_0
   + edge_14_15_0_0 = 1
 consume_one_flow_unit_15: flow_0_15_0_0 + flow_2_15_0_0 + flow_3_15_0_0
   + flow_4_15_0_0 + flow_5_15_0_0 + flow_7_15_0_0 + flow_8_15_0_0
   + flow_9_15_0_0 + flow_10_15_0_0 + flow_11_15_0_0 + flow_12_15_0_0
   + flow_14_15_0_0 - flow_15_12_0_0 - flow_15_14_0_0 = 1
 root_flow: flow_0_1_0_0 + flow_0_2_0_0 + flow_0_3_0_0 + flow_0_5_0_0
   + flow_0_7_0_0 + flow_0_10_0_0 + flow_0_12_0_0 + flow_0_14_0_0
   + flow_0_15_0_0 = 15
 inactive_no_flow_0_1_0_0: flow_0_1_0_0 - 1000 edge_0_1_0_0 <= 0
 inactive_no_flow_0_2_0_0: flow_0_2_0_0 - 1000 edge_0_2_0_0 <= 0
 inactive_no_flow_0_3_0_0: flow_0_3_0_0 - 1000 edge_0_3_0_0 <= 0
 inactive_no_flow_0_5_0_0: flow_0_5_0_0 - 1000 edge_0_5_0_0 <= 0
 inactive_no_flow_0_7_0_0: flow_0_7_0_0 - 1000 edge_0_7_0_0 <= 0
 inactive_no_flow_0_10_0_0: flow_0_10_0_0 - 1000 edge_0_10_0_0 <= 0
 inactive_no_flow_0_12_0_0: flow_0_12_0_0 - 1000 edge_0_12_0_0 <= 0
 inactive_no_flow_0_14_0_0: flow_0_14_0_0 - 1000 edge_0_14_0_0 <= 0
 inactive_no_flow_0_15_0_0: flow_0_15_0_0 - 1000 edge_0_15_0_0 <= 0
 inactive_no_flow_1_2_0_0: flow_1_2_0_0 - 1000 edge_1_2_0_0 <= 0
 inactive_no_flow_1_3_0_0: flow_1_3_0_0 - 1000 edge_1_3_0_0 <= 0
 inactive_no_flow_1_4_0_0: flow_1_4_0_0 - 1000 edge_1_4_0_0 <= 0
 inactive_no_flow_1_5_0_0: flow_1_5_0_0 - 1000 edge_1_5_0_0 <= 0
 inactive_no_flow_1_7_0_0: flow_1_7_0_0 - 1000 edge_1_7_0_0 <= 0
 inactive_no_flow_1_8_0_0: flow_1_8_0_0 - 1000 edge_1_8_0_0 <= 0
 inactive_no_flow_1_10_0_0: flow_1_10_0_0 - 1000 edge_1_10_0_0 <= 0
 inactive_no_flow_1_13_0_0: flow_1_13_0_0 - 1000 edge_1_13_0_0 <= 0
 inactive_no_flow_2_1_0_0: flow_2_1_0_0 - 1000 edge_2_1_0_0 <= 0
 inactive_no_flow_2_3_0_0: flow_2_3_0_0 - 1000 edge_2_3_0_0 <= 0
 inactive_no_flow_2_4_0_0: flow_2_4_0_0 - 1000 edge_2_4_0_0 <= 0
 inactive_no_flow_2_5_0_0: flow_2_5_0_0 - 1000 edge_2_5_0_0 <= 0
 inactive_no_flow_2_7_0_0: flow_2_7_0_0 - 1000 edge_2_7_0_0 <= 0
 inactive_no_flow_2_8_0_0: flow_2_8_0_0 - 1000 edge_2_8_0_0 <= 0
 inactive_no_flow_2_9_0_0: flow_2_9_0_0 - 1000 edge_2_9_0_0 <= 0
 inactive_no_flow_2_10_0_0: flow_2_10_0_0 - 1000 edge_2_10_0_0 <= 0
 inactive_no_flow_2_11_0_0: flow_2_11_0_0 - 1000 edge_2_11_0_0 <= 0
 inactive_no_flow_2_12_0_0: flow_2_12_0_0 - 1000 edge_2_12_0_0 <= 0
 inactive_no_flow_2_13_0_0: flow_2_13_0_0 - 1000 edge_2_13_0_0 <= 0
 inactive_no_flow_2_14_0_0: flow_2_14_0_0 - 1000 edge_2_14_0_0 <= 0
 inactive_no_flow_2_15_0_0: flow_2_15_0_0 - 1000 edge_2_15_0_0 <= 0
 inactive_no_flow_3_1_0_0: flow_3_1_0_0 - 1000 edge_3_1_0_0 <= 0
 inactive_no_flow_3_2_0_0: flow_3_2_0_0 - 1000 edge_3_2_0_0 <= 0
 inactive_no_flow_3_4_0_0: flow_3_4_0_0 - 1000 edge_3_4_0_0 <= 0
 inactive_no_flow_3_5_0_0: flow_3_5_0_0 - 1000 edge_3_5_0_0 <= 0
 inactive_no_flow_3_7_0_0: flow_3_7_0_0 - 1000 edge_3_7_0_0 <= 0
 inactive_no_flow_3_8_0_0: flow_3_8_0_0 - 1000 edge_3_8_0_0 <= 0
 inactive_no_flow_3_9_0_0: flow_3_9_0_0 - 1000 edge_3_9_0_0 <= 0
 inactive_no_flow_3_10_0_0: flow_3_10_0_0 - 1000 edge_3_10_0_0 <= 0
 inactive_no_flow_3_11_0_0: flow_3_11_0_0 - 1000 edge_3_11_0_0 <= 0
 inactive_no_flow_3_12_0_0: flow_3_12_0_0 - 1000 edge_3_12_0_0 <= 0
 inactive_no_flow_3_13_0_0: flow_3_13_0_0 - 1000 edge_3_13_0_0 <= 0
 inactive_no_flow_3_14_0_0: flow_3_14_0_0 - 1000 edge_3_14_0_0 <= 0
 inactive_no_flow_3_15_0_0: flow_3_15_0_0 - 1000 edge_3_15_0_0 <= 0
 inactive_no_flow_4_1_0_0: flow_4_1_0_0 - 1000 edge_4_1_0_0 <= 0
 inactive_no_flow_4_2_0_0: flow_4_2_0_0 - 1000 edge_4_2_0_0 <= 0
 inactive_no_flow_4_3_0_0: flow_4_3_0_0 - 1000 edge_4_3_0_0 <= 0
 inactive_no_flow_4_5_0_0: flow_4_5_0_0 - 1000 edge_4_5_0_0 <= 0
 inactive_no_flow_4_7_0_0: flow_4_7_0_0 - 1000 edge_4_7_0_0 <= 0
 inactive_no_flow_4_8_0_0: flow_4_8_0_0 - 1000 edge_4_8_0_0 <= 0
 inactive_no_flow_4_9_0_0: flow_4_9_0_0 - 1000 edge_4_9_0_0 <= 0
 inactive_no_flow_4_10_0_0: flow_4_10_0_0 - 1000 edge_4_10_0_0 <= 0
 inactive_no_flow_4_11_0_0: flow_4_11_0_0 - 1000 edge_4_11_0_0 <= 0
 inactive_no_flow_4_12_0_0: flow_4_12_0_0 - 1000 edge_4_12_0_0 <= 0
 inactive_no_flow_4_13_0_0: flow_4_13_0_0 - 1000 edge_4_13_0_0 <= 0
 inactive_no_flow_4_15_0_0: flow_4_15_0_0 - 1000 edge_4_15_0_0 <= 0
 inactive_no_flow_5_1_0_0: flow_5_1_0_0 - 1000 edge_5_1_0_0 <= 0
 inactive_no_flow_5_2_0_0: flow_5_2_0_0 - 1000 edge_5_2_0_0 <= 0
 inactive_no_flow_5_3_0_0: flow_5_3_0_0 - 1000 edge_5_3_0_0 <= 0
 inactive_no_flow_5_4_0_0: flow_5_4_0_0 - 1000 edge_5_4_0_0 <= 0
 inactive_no_flow_5_7_0_0: flow_5_7_0_0 - 1000 edge_5_7_0_0 <= 0
 inactive_no_flow_5_8_0_0: flow_5_8_0_0 - 1000 edge_5_8_0_0 <= 0
 inactive_no_flow_5_9_0_0: flow_5_9_0_0 - 1000 edge_5_9_0_0 <= 0
 inactive_no_flow_5_10_0_0: flow_5_10_0_0 - 1000 edge_5_10_0_0 <= 0
 inactive_no_flow_5_11_0_0: flow_5_11_0_0 - 1000 edge_5_11_0_0 <= 0
 inactive_no_flow_5_12_0_0: flow_5_12_0_0 - 1000 edge_5_12_0_0 <= 0
 inactive_no_flow_5_13_0_0: flow_5_13_0_0 - 1000 edge_5_13_0_0 <= 0
 inactive_no_flow_5_14_0_0: flow_5_14_0_0 - 1000 edge_5_14_0_0 <= 0
 inactive_no_flow_5_15_0_0: flow_5_15_0_0 - 1000 edge_5_15_0_0 <= 0
 inactive_no_flow_7_1_0_0: flow_7_1_0_0 - 1000 edge_7_1_0_0 <= 0
 inactive_no_flow_7_2_0_0: flow_7_2_0_0 - 1000 edge_7_2_0_0 <= 0
 inactive_no_flow_7_3_0_0: flow_7_3_0_0 - 1000 edge_7_3_0_0 <= 0
 inactive_no_flow_7_4_0_0: flow_7_4_0_0 - 1000 edge_7_4_0_0 <= 0
 inactive_no_flow_7_5_0_0: flow_7_5_0_0 - 1000 edge_7_5_0_0 <= 0
 inactive_no_flow_7_8_0_0: flow_7_8_0_0 - 1000 edge_7_8_0_0 <= 0
 inactive_no_flow_7_9_0_0: flow_7_9_0_0 - 1000 edge_7_9_0_0 <= 0
 inactive_no_flow_7_10_0_0: flow_7_10_0_0 - 1000 edge_7_10_0_0 <= 0
 inactive_no_flow_7_11_0_0: flow_7_11_0_0 - 1000 edge_7_11_0_0 <= 0
 inactive_no_flow_7_12_0_0: flow_7_12_0_0 - 1000 edge_7_12_0_0 <= 0
 inactive_no_flow_7_13_0_0: flow_7_13_0_0 - 1000 edge_7_13_0_0 <= 0
 inactive_no_flow_7_15_0_0: flow_7_15_0_0 - 1000 edge_7_15_0_0 <= 0
 inactive_no_flow_8_4_0_0: flow_8_4_0_0 - 1000 edge_8_4_0_0 <= 0
 inactive_no_flow_8_5_0_0: flow_8_5_0_0 - 1000 edge_8_5_0_0 <= 0
 inactive_no_flow_8_7_0_0: flow_8_7_0_0 - 1000 edge_8_7_0_0 <= 0
 inactive_no_flow_8_9_0_0: flow_8_9_0_0 - 1000 edge_8_9_0_0 <= 0
 inactive_no_flow_8_10_0_0: flow_8_10_0_0 - 1000 edge_8_10_0_0 <= 0
 inactive_no_flow_8_11_0_0: flow_8_11_0_0 - 1000 edge_8_11_0_0 <= 0
 inactive_no_flow_8_12_0_0: flow_8_12_0_0 - 1000 edge_8_12_0_0 <= 0
 inactive_no_flow_8_13_0_0: flow_8_13_0_0 - 1000 edge_8_13_0_0 <= 0
 inactive_no_flow_8_15_0_0: flow_8_15_0_0 - 1000 edge_8_15_0_0 <= 0
 inactive_no_flow_9_2_0_0: flow_9_2_0_0 - 1000 edge_9_2_0_0 <= 0
 inactive_no_flow_9_4_0_0: flow_9_4_0_0 - 1000 edge_9_4_0_0 <= 0
 inactive_no_flow_9_5_0_0: flow_9_5_0_0 - 1000 edge_9_5_0_0 <= 0
 inactive_no_flow_9_7_0_0: flow_9_7_0_0 - 1000 edge_9_7_0_0 <= 0
 inactive_no_flow_9_8_0_0: flow_9_8_0_0 - 1000 edge_9_8_0_0 <= 0
 inactive_no_flow_9_11_0_0: flow_9_11_0_0 - 1000 edge_9_11_0_0 <= 0
 inactive_no_flow_9_12_0_0: flow_9_12_0_0 - 1000 edge_9_12_0_0 <= 0
 inactive_no_flow_9_15_0_0: flow_9_15_0_0 - 1000 edge_9_15_0_0 <= 0
 inactive_no_flow_10_1_0_0: flow_10_1_0_0 - 1000 edge_10_1_0_0 <= 0
 inactive_no_flow_10_2_0_0: flow_10_2_0_0 - 1000 edge_10_2_0_0 <= 0
 inactive_no_flow_10_3_0_0: flow_10_3_0_0 - 1000 edge_10_3_0_0 <= 0
 inactive_no_flow_10_4_0_0: flow_10_4_0_0 - 1000 edge_10_4_0_0 <= 0
 inactive_no_flow_10_5_0_0: flow_10_5_0_0 - 1000 edge_10_5_0_0 <= 0
 inactive_no_flow_10_7_0_0: flow_10_7_0_0 - 1000 edge_10_7_0_0 <= 0
 inactive_no_flow_10_8_0_0: flow_10_8_0_0 - 1000 edge_10_8_0_0 <= 0
 inactive_no_flow_10_9_0_0: flow_10_9_0_0 - 1000 edge_10_9_0_0 <= 0
 inactive_no_flow_10_11_0_0: flow_10_11_0_0 - 1000 edge_10_11_0_0 <= 0
 inactive_no_flow_10_12_0_0: flow_10_12_0_0 - 1000 edge_10_12_0_0 <= 0
 inactive_no_flow_10_13_0_0: flow_10_13_0_0 - 1000 edge_10_13_0_0 <= 0
 inactive_no_flow_10_14_0_0: flow_10_14_0_0 - 1000 edge_10_14_0_0 <= 0
 inactive_no_flow_10_15_0_0: flow_10_15_0_0 - 1000 edge_10_15_0_0 <= 0
 inactive_no_flow_11_1_0_0: flow_11_1_0_0 - 1000 edge_11_1_0_0 <= 0
 inactive_no_flow_11_2_0_0: flow_11_2_0_0 - 1000 edge_11_2_0_0 <= 0
 inactive_no_flow_11_4_0_0: flow_11_4_0_0 - 1000 edge_11_4_0_0 <= 0
 inactive_no_flow_11_5_0_0: flow_11_5_0_0 - 1000 edge_11_5_0_0 <= 0
 inactive_no_flow_11_7_0_0: flow_11_7_0_0 - 1000 edge_11_7_0_0 <= 0
 inactive_no_flow_11_8_0_0: flow_11_8_0_0 - 1000 edge_11_8_0_0 <= 0
 inactive_no_flow_11_9_0_0: flow_11_9_0_0 - 1000 edge_11_9_0_0 <= 0
 inactive_no_flow_11_10_0_0: flow_11_10_0_0 - 1000 edge_11_10_0_0 <= 0
 inactive_no_flow_11_12_0_0: flow_11_12_0_0 - 1000 edge_11_12_0_0 <= 0
 inactive_no_flow_11_13_0_0: flow_11_13_0_0 - 1000 edge_11_13_0_0 <= 0
 inactive_no_flow_11_15_0_0: flow_11_15_0_0 - 1000 edge_11_15_0_0 <= 0
 inactive_no_flow_12_1_0_0: flow_12_1_0_0 - 1000 edge_12_1_0_0 <= 0
 inactive_no_flow_12_2_0_0: flow_12_2_0_0 - 1000 edge_12_2_0_0 <= 0
 inactive_no_flow_12_3_0_0: flow_12_3_0_0 - 1000 edge_12_3_0_0 <= 0
 inactive_no_flow_12_4_0_0: flow_12_4_0_0 - 1000 edge_12_4_0_0 <= 0
 inactive_no_flow_12_5_0_0: flow_12_5_0_0 - 1000 edge_12_5_0_0 <= 0
 inactive_no_flow_12_7_0_0: flow_12_7_0_0 - 1000 edge_12_7_0_0 <= 0
 inactive_no_flow_12_8_0_0: flow_12_8_0_0 - 1000 edge_12_8_0_0 <= 0
 inactive_no_flow_12_9_0_0: flow_12_9_0_0 - 1000 edge_12_9_0_0 <= 0
 inactive_no_flow_12_10_0_0: flow_12_10_0_0 - 1000 edge_12_10_0_0 <= 0
 inactive_no_flow_12_11_0_0: flow_12_11_0_0 - 1000 edge_12_11_0_0 <= 0
 inactive_no_flow_12_13_0_0: flow_12_13_0_0 - 1000 edge_12_13_0_0 <= 0
 inactive_no_flow_12_14_0_0: flow_12_14_0_0 - 1000 edge_12_14_0_0 <= 0
 inactive_no_flow_12_15_0_0: flow_12_15_0_0 - 1000 edge_12_15_0_0 <= 0
 inactive_no_flow_13_10_0_0: flow_13_10_0_0 - 1000 edge_13_10_0_0 <= 0
 inactive_no_flow_13_11_0_0: flow_13_11_0_0 - 1000 edge_13_11_0_0 <= 0
 inactive_no_flow_13_12_0_0: flow_13_12_0_0 - 1000 edge_13_12_0_0 <= 0
 inactive_no_flow_13_14_0_0: flow_13_14_0_0 - 1000 edge_13_14_0_0 <= 0
 inactive_no_flow_14_2_0_0: flow_14_2_0_0 - 1000 edge_14_2_0_0 <= 0
 inactive_no_flow_14_3_0_0: flow_14_3_0_0 - 1000 edge_14_3_0_0 <= 0
 inactive_no_flow_14_4_0_0: flow_14_4_0_0 - 1000 edge_14_4_0_0 <= 0
 inactive_no_flow_14_5_0_0: flow_14_5_0_0 - 1000 edge_14_5_0_0 <= 0
 inactive_no_flow_14_7_0_0: flow_14_7_0_0 - 1000 edge_14_7_0_0 <= 0
 inactive_no_flow_14_8_0_0: flow_14_8_0_0 - 1000 edge_14_8_0_0 <= 0
 inactive_no_flow_14_9_0_0: flow_14_9_0_0 - 1000 edge_14_9_0_0 <= 0
 inactive_no_flow_14_10_0_0: flow_14_10_0_0 - 1000 edge_14_10_0_0 <= 0
 inactive_no_flow_14_11_0_0: flow_14_11_0_0 - 1000 edge_14_11_0_0 <= 0
 inactive_no_flow_14_12_0_0: flow_14_12_0_0 - 1000 edge_14_12_0_0 <= 0
 inactive_no_flow_14_13_0_0: flow_14_13_0_0 - 1000 edge_14_13_0_0 <= 0
 inactive_no_flow_14_15_0_0: flow_14_15_0_0 - 1000 edge_14_15_0_0 <= 0
 inactive_no_flow_15_12_0_0: flow_15_12_0_0 - 1000 edge_15_12_0_0 <= 0
 inactive_no_flow_15_14_0_0: flow_15_14_0_0 - 1000 edge_15_14_0_0 <= 0
Bounds
Binaries
 edge_0_1_0_0 edge_0_2_0_0 edge_0_3_0_0 edge_0_5_0_0 edge_0_7_0_0
 edge_0_10_0_0 edge_0_12_0_0 edge_0_14_0_0 edge_0_15_0_0 edge_1_2_0_0
 edge_1_3_0_0 edge_1_4_0_0 edge_1_5_0_0 edge_1_7_0_0 edge_1_8_0_0
 edge_1_10_0_0 edge_1_13_0_0 edge_2_1_0_0 edge_2_3_0_0 edge_2_4_0_0
 edge_2_5_0_0 edge_2_7_0_0 edge_2_8_0_0 edge_2_9_0_0 edge_2_10_0_0
 edge_2_11_0_0 edge_2_12_0_0 edge_2_13_0_0 edge_2_14_0_0 edge_2_15_0_0
 edge_3_1_0_0 edge_3_2_0_0 edge_3_4_0_0 edge_3_5_0_0 edge_3_7_0_0
 edge_3_8_0_0 edge_3_9_0_0 edge_3_10_0_0 edge_3_11_0_0 edge_3_12_0_0
 edge_3_13_0_0 edge_3_14_0_0 edge_3_15_0_0 edge_4_1_0_0 edge_4_2_0_0
 edge_4_3_0_0 edge_4_5_0_0 edge_4_7_0_0 edge_4_8_0_0 edge_4_9_0_0
 edge_4_10_0_0 edge_4_11_0_0 edge_4_12_0_0 edge_4_13_0_0 edge_4_15_0_0
 edge_5_1_0_0 edge_5_2_0_0 edge_5_3_0_0 edge_5_4_0_0 edge_5_7_0_0
 edge_5_8_0_0 edge_5_9_0_0 edge_5_10_0_0 edge_5_11_0_0 edge_5_12_0_0
 edge_5_13_0_0 edge_5_14_0_0 edge_5_15_0_0 edge_7_1_0_0 edge_7_2_0_0
 edge_7_3_0_0 edge_7_4_0_0 edge_7_5_0_0 edge_7_8_0_0 edge_7_9_0_0
 edge_7_10_0_0 edge_7_11_0_0 edge_7_12_0_0 edge_7_13_0_0 edge_7_15_0_0
 edge_8_4_0_0 edge_8_5_0_0 edge_8_7_0_0 edge_8_9_0_0 edge_8_10_0_0
 edge_8_11_0_0 edge_8_12_0_0 edge_8_13_0_0 edge_8_15_0_0 edge_9_2_0_0
 edge_9_4_0_0 edge_9_5_0_0 edge_9_7_0_0 edge_9_8_0_0 edge_9_11_0_0
 edge_9_12_0_0 edge_9_15_0_0 edge_10_1_0_0 edge_10_2_0_0 edge_10_3_0_0
 edge_10_4_0_0 edge_10_5_0_0 edge_10_7_0_0 edge_10_8_0_0 edge_10_9_0_0
 edge_10_11_0_0 edge_10_12_0_0 edge_10_13_0_0 edge_10_14_0_0 edge_10_15_0_0
 edge_11_1_0_0 edge_11_2_0_0 edge_11_4_0_0 edge_11_5_0_0 edge_11_7_0_0
 edge_11_8_0_0 edge_11_9_0_0 edge_11_10_0_0 edge_11_12_0_0 edge_11_13_0_0
 edge_11_15_0_0 edge_12_1_0_0 edge_12_2_0_0 edge_12_3_0_0 edge_12_4_0_0
 edge_12_5_0_0 edge_12_7_0_0 edge_12_8_0_0 edge_12_9_0_0 edge_12_10_0_0
 edge_12_11_0_0 edge_12_13_0_0 edge_12_14_0_0 edge_12_15_0_0 edge_13_10_0_0
 edge_13_11_0_0 edge_13_12_0_0 edge_13_14_0_0 edge_14_2_0_0 edge_14_3_0_0
 edge_14_4_0_0 edge_14_5_0_0 edge_14_7_0_0 edge_14_8_0_0 edge_14_9_0_0
 edge_14_10_0_0 edge_14_11_0_0 edge_14_12_0_0 edge_14_13_0_0 edge_14_15_0_0
 edge_15_12_0_0 edge_15_14_0_0
End
